NAME 
ROWS
 N  OBJ
 L  R0      
 L  R1      
 L  R2      
 L  R3      
 E  R4      
COLUMNS
    MARKER    'MARKER'                 'INTORG'
    I0(5)     OBJ       -651
    I0(5)     R0        -727
    I0(5)     R1        -134
    I0(5)     R2        -738
    I0(5)     R3        -168
    I0(5)     R4        574
    I1(5)     OBJ       -525
    I1(5)     R0        -779
    I1(5)     R1        -12
    I1(5)     R2        -144
    I1(5)     R3        -954
    I1(5)     R4        771
    I2(5)     OBJ       -190
    I2(5)     R0        -156
    I2(5)     R1        -834
    I2(5)     R2        -655
    I2(5)     R3        -37
    I2(5)     R4        836
    I3(5)     OBJ       -585
    I3(5)     R0        -115
    I3(5)     R1        -698
    I3(5)     R2        -262
    I3(5)     R3        -273
    I3(5)     R4        857
    I4(5)     OBJ       -697
    I4(5)     R0        -299
    I4(5)     R1        -110
    I4(5)     R2        -517
    I4(5)     R3        -585
    I4(5)     R4        52
    I5(5)     OBJ       -140
    I5(5)     R0        -763
    I5(5)     R1        -618
    I5(5)     R2        -195
    I5(5)     R3        -84
    I5(5)     R4        255
    I6(5)     OBJ       -853
    I6(5)     R0        -692
    I6(5)     R1        -422
    I6(5)     R2        -482
    I6(5)     R3        -676
    I6(5)     R4        249
    I7(5)     OBJ       -571
    I7(5)     R0        -558
    I7(5)     R1        -87
    I7(5)     R2        -28
    I7(5)     R3        -978
    I7(5)     R4        950
    I8(5)     OBJ       -908
    I8(5)     R0        -306
    I8(5)     R1        -207
    I8(5)     R2        -589
    I8(5)     R3        -822
    I8(5)     R4        96
    I9(5)     OBJ       -740
    I9(5)     R0        -1000
    I9(5)     R1        -327
    I9(5)     R2        -272
    I9(5)     R3        -637
    I9(5)     R4        728
    I10(5)    OBJ       -221
    I10(5)    R0        -184
    I10(5)    R1        -475
    I10(5)    R2        -447
    I10(5)    R3        -677
    I10(5)    R4        54
    I11(5)    OBJ       -415
    I11(5)    R0        -956
    I11(5)    R1        -933
    I11(5)    R2        -722
    I11(5)    R3        -560
    I11(5)    R4        263
    I12(5)    OBJ       -565
    I12(5)    R0        -524
    I12(5)    R1        -106
    I12(5)    R2        -283
    I12(5)    R3        -780
    I12(5)    R4        682
    I13(5)    OBJ       -99
    I13(5)    R0        -373
    I13(5)    R1        -631
    I13(5)    R2        -281
    I13(5)    R3        -332
    I13(5)    R4        90
    I14(5)    OBJ       -785
    I14(5)    R0        -541
    I14(5)    R1        -47
    I14(5)    R2        -420
    I14(5)    R3        -821
    I14(5)    R4        535
    I15(5)    OBJ       -724
    I15(5)    R0        -220
    I15(5)    R1        -404
    I15(5)    R2        -393
    I15(5)    R3        -297
    I15(5)    R4        266
    I16(5)    OBJ       -978
    I16(5)    R0        -512
    I16(5)    R1        -394
    I16(5)    R2        -898
    I16(5)    R3        -527
    I16(5)    R4        173
    I17(5)    OBJ       -589
    I17(5)    R0        -394
    I17(5)    R1        -739
    I17(5)    R2        -841
    I17(5)    R3        -302
    I17(5)    R4        211
    I18(5)    OBJ       -906
    I18(5)    R0        -791
    I18(5)    R1        -961
    I18(5)    R2        -480
    I18(5)    R3        -324
    I18(5)    R4        244
    I19(5)    OBJ       -388
    I19(5)    R0        -420
    I19(5)    R1        -699
    I19(5)    R2        -105
    I19(5)    R3        -115
    I19(5)    R4        995
    I20(1)    R4        1
    MARKER    'MARKER'                 'INTEND'
RHS
    RHS1      R0        -7909
    RHS1      R1        -5877
    RHS1      R2        -7277
    RHS1      R3        -7260
    RHS1      R4        4440
BOUNDS
 UP BND1      I0(5)     1
 UP BND1      I1(5)     1
 UP BND1      I2(5)     1
 UP BND1      I3(5)     1
 UP BND1      I4(5)     1
 UP BND1      I5(5)     1
 UP BND1      I6(5)     1
 UP BND1      I7(5)     1
 UP BND1      I8(5)     1
 UP BND1      I9(5)     1
 UP BND1      I10(5)    1
 UP BND1      I11(5)    1
 UP BND1      I12(5)    1
 UP BND1      I13(5)    1
 UP BND1      I14(5)    1
 UP BND1      I15(5)    1
 UP BND1      I16(5)    1
 UP BND1      I17(5)    1
 UP BND1      I18(5)    1
 UP BND1      I19(5)    1
 LI BND1      I20(1)    0
ENDATA
